c File: instances/40_0.45_1.col
c
c Description: Random graph of size 40 vertices and P(0.44999999999999996) of edges between any two vertices.
p col 40 780
e 1 4
e 1 5
e 1 8
e 1 9
e 1 14
e 1 15
e 1 18
e 1 19
e 1 22
e 1 24
e 1 25
e 1 26
e 1 27
e 1 33
e 1 34
e 1 37
e 2 4
e 2 6
e 2 7
e 2 9
e 2 11
e 2 13
e 2 17
e 2 19
e 2 24
e 2 27
e 2 31
e 2 34
e 2 36
e 2 37
e 2 39
e 3 4
e 3 7
e 3 13
e 3 14
e 3 15
e 3 17
e 3 18
e 3 19
e 3 20
e 3 23
e 3 24
e 3 26
e 3 28
e 3 29
e 3 32
e 3 33
e 3 34
e 3 35
e 3 36
e 3 37
e 3 38
e 3 39
e 3 40
e 4 6
e 4 8
e 4 9
e 4 12
e 4 13
e 4 14
e 4 19
e 4 22
e 4 25
e 4 30
e 4 32
e 4 34
e 4 35
e 4 39
e 4 40
e 5 7
e 5 9
e 5 11
e 5 15
e 5 17
e 5 18
e 5 19
e 5 20
e 5 21
e 5 23
e 5 27
e 5 32
e 5 33
e 5 36
e 5 40
e 6 8
e 6 9
e 6 10
e 6 14
e 6 15
e 6 17
e 6 18
e 6 20
e 6 22
e 6 25
e 6 26
e 6 29
e 6 30
e 6 31
e 6 32
e 6 33
e 6 36
e 7 9
e 7 10
e 7 11
e 7 14
e 7 15
e 7 18
e 7 23
e 7 24
e 7 25
e 7 28
e 7 29
e 7 30
e 7 31
e 7 33
e 7 37
e 7 38
e 7 40
e 8 10
e 8 13
e 8 14
e 8 15
e 8 18
e 8 20
e 8 21
e 8 22
e 8 23
e 8 36
e 8 37
e 8 38
e 8 39
e 8 40
e 9 10
e 9 12
e 9 14
e 9 15
e 9 16
e 9 17
e 9 21
e 9 24
e 9 25
e 9 26
e 9 27
e 9 29
e 9 30
e 9 32
e 9 34
e 9 35
e 9 36
e 9 40
e 10 20
e 10 21
e 10 26
e 10 28
e 10 29
e 10 31
e 10 32
e 10 35
e 10 36
e 10 37
e 10 38
e 10 40
e 11 14
e 11 20
e 11 21
e 11 23
e 11 25
e 11 27
e 11 31
e 11 32
e 11 33
e 11 38
e 12 13
e 12 14
e 12 15
e 12 19
e 12 20
e 12 22
e 12 23
e 12 25
e 12 26
e 12 28
e 12 29
e 12 30
e 12 32
e 12 33
e 12 36
e 13 15
e 13 17
e 13 21
e 13 22
e 13 23
e 13 24
e 13 26
e 13 28
e 13 30
e 13 32
e 13 36
e 14 17
e 14 18
e 14 19
e 14 21
e 14 22
e 14 25
e 14 28
e 14 29
e 14 31
e 14 34
e 14 35
e 14 38
e 14 39
e 14 40
e 15 19
e 15 20
e 15 23
e 15 24
e 15 26
e 15 28
e 15 29
e 15 32
e 15 34
e 15 37
e 15 38
e 15 39
e 15 40
e 16 17
e 16 18
e 16 19
e 16 21
e 16 22
e 16 23
e 16 26
e 16 29
e 16 31
e 16 32
e 16 34
e 16 36
e 16 37
e 16 39
e 16 40
e 17 18
e 17 20
e 17 28
e 17 30
e 17 31
e 17 32
e 17 35
e 17 40
e 18 22
e 18 23
e 18 24
e 18 25
e 18 28
e 18 29
e 18 30
e 18 32
e 18 34
e 18 40
e 19 21
e 19 22
e 19 26
e 19 27
e 19 28
e 19 30
e 19 31
e 19 32
e 19 33
e 19 37
e 19 40
e 20 26
e 20 28
e 20 29
e 20 31
e 20 32
e 20 33
e 20 34
e 20 35
e 20 36
e 20 39
e 21 25
e 21 28
e 21 34
e 21 37
e 21 38
e 21 39
e 21 40
e 22 23
e 22 24
e 22 27
e 22 28
e 22 34
e 22 35
e 22 37
e 22 39
e 23 27
e 23 28
e 23 29
e 23 30
e 23 32
e 23 33
e 23 34
e 23 36
e 23 37
e 23 38
e 23 39
e 24 28
e 24 29
e 24 31
e 25 29
e 25 34
e 25 35
e 25 36
e 25 37
e 25 38
e 25 40
e 26 27
e 26 29
e 26 30
e 26 31
e 26 32
e 26 33
e 26 34
e 26 37
e 26 38
e 27 35
e 27 37
e 27 38
e 28 29
e 28 30
e 28 31
e 28 32
e 28 33
e 28 34
e 28 35
e 28 38
e 28 39
e 29 30
e 29 32
e 29 33
e 29 34
e 29 38
e 29 39
e 30 31
e 30 32
e 30 34
e 30 35
e 30 38
e 30 40
e 31 32
e 31 33
e 31 34
e 31 35
e 31 40
e 32 33
e 32 34
e 32 36
e 32 38
e 32 39
e 32 40
e 33 34
e 33 37
e 33 38
e 34 38
e 34 40
e 35 38
e 35 40
e 37 40
e 38 39
e 38 40
e 39 40